15	2	2
2874	2874	
981	37	64	
255	276	286	
828	308	374	
379	102	108	
155	776	974	
463	110	127	
925	227	410	
197	50	57	
92	771	1194	
532	50	68	
446	885	1165	
640	863	1055	
303	290	292	
631	416	726	
87	587	640	
